c "527035.clq"
p edge 140 544
e 1 5
e 1 6
e 1 12
e 1 21
e 1 24
e 1 25
e 1 43
e 1 72
e 1 107
e 1 113
e 2 5
e 2 6
e 2 7
e 2 10
e 2 11
e 2 12
e 2 22
e 2 23
e 2 25
e 2 28
e 2 32
e 2 35
e 2 38
e 2 40
e 2 41
e 2 50
e 2 58
e 2 61
e 2 71
e 2 72
e 2 74
e 2 75
e 2 80
e 2 90
e 2 91
e 2 115
e 2 119
e 2 134
e 2 139
e 3 5
e 3 7
e 3 8
e 3 10
e 3 14
e 3 17
e 3 21
e 3 26
e 3 31
e 3 37
e 3 40
e 3 49
e 3 50
e 3 86
e 3 90
e 3 92
e 3 112
e 4 5
e 4 6
e 4 8
e 4 9
e 4 10
e 4 15
e 4 18
e 4 20
e 4 29
e 4 33
e 4 48
e 4 53
e 4 63
e 4 67
e 4 70
e 4 92
e 4 93
e 4 95
e 4 98
e 4 99
e 4 111
e 4 120
e 4 127
e 5 6
e 5 7
e 5 8
e 5 9
e 5 10
e 5 11
e 5 14
e 5 19
e 5 21
e 5 30
e 5 33
e 5 37
e 5 49
e 5 53
e 5 57
e 5 65
e 5 68
e 5 75
e 5 87
e 5 94
e 5 103
e 6 7
e 6 8
e 6 9
e 6 11
e 6 12
e 6 13
e 6 14
e 6 16
e 6 20
e 6 24
e 6 28
e 6 29
e 6 30
e 6 31
e 6 32
e 6 34
e 6 36
e 6 40
e 6 45
e 6 50
e 6 56
e 6 64
e 6 80
e 6 85
e 6 91
e 6 105
e 6 112
e 6 120
e 6 130
e 6 135
e 6 136
e 7 13
e 7 17
e 7 19
e 7 20
e 7 23
e 7 25
e 7 26
e 7 27
e 7 29
e 7 36
e 7 41
e 7 45
e 7 47
e 7 54
e 7 57
e 7 64
e 7 86
e 7 96
e 7 97
e 7 99
e 7 100
e 7 104
e 7 109
e 7 114
e 7 116
e 7 117
e 7 121
e 7 124
e 7 125
e 7 127
e 7 128
e 7 139
e 8 9
e 8 15
e 8 16
e 8 17
e 8 25
e 8 26
e 8 29
e 8 39
e 8 41
e 8 42
e 8 55
e 8 58
e 8 62
e 8 63
e 8 65
e 8 82
e 8 84
e 8 118
e 8 119
e 8 127
e 8 128
e 8 137
e 9 11
e 9 12
e 9 16
e 9 18
e 9 19
e 9 20
e 9 23
e 9 30
e 9 37
e 9 39
e 9 40
e 9 46
e 9 57
e 9 61
e 9 67
e 9 78
e 9 88
e 9 89
e 9 106
e 9 110
e 9 116
e 10 14
e 10 15
e 10 32
e 10 34
e 10 35
e 10 50
e 10 51
e 10 53
e 10 64
e 10 68
e 10 114
e 11 13
e 11 21
e 11 31
e 11 39
e 11 51
e 11 58
e 11 65
e 11 78
e 11 83
e 11 97
e 11 138
e 12 13
e 12 23
e 12 39
e 12 46
e 12 47
e 12 59
e 12 75
e 12 102
e 12 117
e 13 15
e 13 17
e 13 28
e 13 43
e 14 18
e 14 28
e 14 31
e 14 57
e 14 79
e 14 81
e 14 109
e 14 118
e 14 134
e 15 16
e 15 22
e 15 47
e 15 69
e 15 70
e 15 76
e 15 84
e 15 89
e 15 120
e 15 140
e 16 18
e 16 27
e 16 51
e 16 62
e 16 96
e 16 107
e 16 122
e 16 137
e 17 22
e 17 27
e 17 59
e 17 93
e 18 19
e 18 33
e 18 36
e 18 38
e 18 46
e 18 49
e 18 69
e 18 79
e 18 111
e 18 125
e 19 22
e 19 42
e 19 76
e 19 88
e 19 93
e 19 106
e 19 116
e 20 34
e 20 122
e 21 24
e 21 37
e 21 52
e 21 54
e 21 63
e 21 70
e 21 81
e 21 83
e 21 89
e 22 26
e 22 30
e 22 33
e 22 35
e 22 38
e 22 43
e 22 44
e 22 52
e 22 54
e 22 60
e 22 108
e 22 111
e 22 113
e 22 124
e 23 24
e 23 27
e 23 48
e 23 61
e 23 66
e 23 71
e 23 104
e 23 124
e 24 38
e 24 41
e 24 65
e 24 68
e 24 70
e 24 72
e 24 76
e 24 114
e 25 43
e 25 56
e 25 79
e 25 100
e 25 130
e 26 32
e 26 42
e 26 55
e 26 86
e 26 88
e 26 121
e 27 45
e 27 47
e 27 71
e 27 129
e 28 34
e 28 46
e 28 59
e 28 75
e 28 103
e 28 138
e 29 44
e 29 51
e 29 56
e 29 68
e 29 94
e 29 125
e 29 131
e 31 127
e 32 35
e 32 128
e 33 58
e 33 59
e 33 103
e 34 80
e 35 36
e 35 62
e 35 103
e 36 42
e 36 81
e 36 105
e 36 117
e 37 44
e 37 66
e 37 96
e 37 101
e 37 136
e 38 48
e 38 52
e 38 63
e 39 91
e 40 44
e 40 56
e 40 60
e 40 69
e 40 73
e 40 97
e 40 115
e 40 119
e 40 133
e 41 99
e 41 123
e 41 138
e 42 62
e 43 48
e 43 55
e 43 74
e 43 99
e 43 110
e 43 124
e 44 45
e 44 55
e 44 66
e 44 81
e 44 90
e 44 95
e 44 133
e 44 140
e 45 87
e 46 49
e 46 52
e 46 54
e 46 64
e 46 84
e 46 101
e 46 102
e 47 60
e 47 79
e 47 82
e 47 98
e 47 100
e 47 105
e 47 108
e 47 126
e 48 94
e 49 74
e 50 53
e 50 69
e 50 85
e 50 87
e 50 92
e 50 116
e 50 131
e 51 112
e 52 104
e 52 121
e 52 130
e 53 77
e 53 78
e 53 83
e 53 91
e 53 105
e 53 139
e 54 73
e 55 109
e 56 67
e 56 106
e 56 110
e 57 67
e 58 60
e 58 71
e 58 72
e 58 73
e 58 86
e 58 93
e 58 134
e 59 74
e 59 77
e 59 112
e 59 114
e 59 135
e 60 61
e 60 76
e 60 78
e 60 102
e 60 106
e 61 100
e 62 85
e 63 66
e 63 73
e 63 94
e 63 97
e 63 107
e 63 119
e 63 135
e 64 83
e 64 85
e 64 87
e 65 77
e 66 126
e 66 129
e 67 109
e 67 115
e 67 122
e 68 77
e 68 133
e 68 140
e 69 88
e 69 101
e 69 108
e 69 121
e 70 131
e 71 80
e 71 82
e 71 132
e 73 82
e 73 122
e 74 130
e 75 101
e 76 90
e 76 107
e 80 92
e 80 95
e 80 118
e 81 108
e 81 123
e 81 126
e 82 84
e 82 104
e 82 113
e 83 115
e 84 89
e 85 117
e 87 98
e 87 110
e 88 134
e 89 98
e 90 95
e 91 96
e 92 129
e 93 118
e 93 126
e 93 132
e 94 113
e 98 102
e 100 123
e 102 128
e 106 123
e 108 125
e 108 131
e 108 132
e 108 133
e 110 111
e 110 139
e 111 137
e 112 120
e 112 129
e 116 135
e 119 136
e 119 137
e 120 136
e 129 140
e 130 132
e 131 138
